Minimize
	value: tt

Subject to
tt + 1000 s_1_1 > 0.0
tt - t_1_1 - 1001.777504 s_1_1  + 1.777504 s_1_7  > -992.238322
tt + 1000 s_2_1 > 0.0
tt - t_2_1 - 1002.013230 s_2_1  + 2.013230 s_2_7  > -993.198794
tt + 1000 s_1_2 > 0.0
tt - t_1_2 - 1001.777504 s_1_2  + 1.777504 s_1_8  > -991.331700
tt + 1000 s_2_2 > 0.0
tt - t_2_2 - 1002.013230 s_2_2  + 2.013230 s_2_8  > -992.397503
tt + 1000 s_1_3 > 0.0
tt - t_1_3 - 1001.777504 s_1_3  + 1.777504 s_1_8  > -986.664600
tt + 1000 s_2_3 > 0.0
tt - t_2_3 - 1002.013230 s_2_3  + 2.013230 s_2_8  > -990.005767
tt + 1000 s_1_4 > 0.0
tt - t_1_4 - 1002.523352 s_1_4  + 0.745848 s_1_3  + 1.777504 s_1_8  > -993.342900
tt + 1000 s_2_4 > 0.0
tt - t_2_4 - 1002.671805 s_2_4  + 0.658575 s_2_3  + 2.013230 s_2_8  > -994.234974
tt + 1000 s_1_5 > 0.0
tt - t_1_5 - 1003.555008 s_1_5  + 1.777504 s_1_7  + 1.777504 s_1_8  > -990.133622
tt + 1000 s_2_5 > 0.0
tt - t_2_5 - 1004.026460 s_2_5  + 2.013230 s_2_7  + 2.013230 s_2_8  > -992.736214
tt + 1000 s_1_6 > 0.0
tt - t_1_6 - 1003.729242 s_1_6  + 0.745848 s_1_1  + 0.745848 s_1_4  + 0.745848 s_1_3  + 0.745848 s_1_2  + 0.745848 s_1_5  > -999.178700
tt + 1000 s_2_6 > 0.0
tt - t_2_6 - 1003.292876 s_2_6  + 0.658575 s_2_1  + 0.658575 s_2_4  + 0.658575 s_2_3  + 0.658575 s_2_2  + 0.658575 s_2_5  > -989.029100
tt + 1000 s_1_7 > 0.0
tt - t_1_7 - 1000.000000 s_1_7  > -970.417900
tt + 1000 s_2_7 > 0.0
tt - t_2_7 - 1000.000000 s_2_7  > -989.718922
tt + 1000 s_1_8 > 0.0
tt - t_1_8 - 1000.000000 s_1_8  > -970.454600
tt + 1000 s_2_8 > 0.0
tt - t_2_8 - 1000.000000 s_2_8  > -989.598578
s_1_1 + s_2_1 = 1
s_1_2 + s_2_2 = 1
s_1_3 + s_2_3 = 1
s_1_4 + s_2_4 = 1
s_1_5 + s_2_5 = 1
s_1_6 + s_2_6 = 1
s_1_7 + s_2_7 = 1
s_1_8 + s_2_8 = 1
s_1_1 + s_1_2 + 1000 r_1_1_2 >= 2
- s_1_1 - s_1_2 - 1000 r_1_1_2 >= -1001
t_1_1 - t_1_2 - 1000.000000 u_1_1_2 - 1.777504 s_1_2  + 1.777504 s_1_8  + 2000.000000 r_1_1_2 > -991.331700
s_2_1 + s_2_2 + 1000 r_2_1_2 >= 2
- s_2_1 - s_2_2 - 1000 r_2_1_2 >= -1001
t_2_1 - t_2_2 - 1000.000000 u_2_1_2 - 2.013230 s_2_2  + 2.013230 s_2_8  + 2000.000000 r_2_1_2 > -992.397503
s_1_1 + s_1_3 + 1000 r_1_1_3 >= 2
- s_1_1 - s_1_3 - 1000 r_1_1_3 >= -1001
t_1_1 - t_1_3 - 1000.000000 u_1_1_3 - 1.777504 s_1_3  + 1.777504 s_1_8  + 2000.000000 r_1_1_3 > -986.664600
s_2_1 + s_2_3 + 1000 r_2_1_3 >= 2
- s_2_1 - s_2_3 - 1000 r_2_1_3 >= -1001
t_2_1 - t_2_3 - 1000.000000 u_2_1_3 - 2.013230 s_2_3  + 2.013230 s_2_8  + 2000.000000 r_2_1_3 > -990.005767
s_1_1 + s_1_4 + 1000 r_1_1_4 >= 2
- s_1_1 - s_1_4 - 1000 r_1_1_4 >= -1001
t_1_1 - t_1_4 - 1000.000000 u_1_1_4 - 2.523352 s_1_4  + 0.745848 s_1_3  + 1.777504 s_1_8  + 2000.000000 r_1_1_4 > -993.342900
s_2_1 + s_2_4 + 1000 r_2_1_4 >= 2
- s_2_1 - s_2_4 - 1000 r_2_1_4 >= -1001
t_2_1 - t_2_4 - 1000.000000 u_2_1_4 - 2.671805 s_2_4  + 0.658575 s_2_3  + 2.013230 s_2_8  + 2000.000000 r_2_1_4 > -994.234974
s_1_1 + s_1_5 + 1000 r_1_1_5 >= 2
- s_1_1 - s_1_5 - 1000 r_1_1_5 >= -1001
t_1_1 - t_1_5 - 1000.000000 u_1_1_5 - 3.555008 s_1_5  + 1.777504 s_1_7  + 1.777504 s_1_8  + 2000.000000 r_1_1_5 > -990.133622
s_2_1 + s_2_5 + 1000 r_2_1_5 >= 2
- s_2_1 - s_2_5 - 1000 r_2_1_5 >= -1001
t_2_1 - t_2_5 - 1000.000000 u_2_1_5 - 4.026460 s_2_5  + 2.013230 s_2_7  + 2.013230 s_2_8  + 2000.000000 r_2_1_5 > -992.736214
t_1_6 - t_1_1 - 1001.777504 s_1_1  + 1.777504 s_1_7  > -992.238322
t_1_6 - t_2_1 - 1002.013230 s_2_1  + 2.013230 s_2_7  > -993.198794
t_2_6 - t_1_1 - 1001.777504 s_1_1  + 1.777504 s_1_7  > -992.238322
t_2_6 - t_2_1 - 1002.013230 s_2_1  + 2.013230 s_2_7  > -993.198794
t_1_1 - t_1_7 - 1000.000000 s_1_7  > -970.417900
t_1_1 - t_2_7 - 1000.000000 s_2_7  > -989.718922
t_2_1 - t_1_7 - 1000.000000 s_1_7  > -970.417900
t_2_1 - t_2_7 - 1000.000000 s_2_7  > -989.718922
s_1_1 + s_1_8 + 1000 r_1_1_8 >= 2
- s_1_1 - s_1_8 - 1000 r_1_1_8 >= -1001
t_1_1 - t_1_8 - 1000.000000 u_1_1_8 - 0.000000 s_1_8  + 2000.000000 r_1_1_8 > -970.454600
s_2_1 + s_2_8 + 1000 r_2_1_8 >= 2
- s_2_1 - s_2_8 - 1000 r_2_1_8 >= -1001
t_2_1 - t_2_8 - 1000.000000 u_2_1_8 - 0.000000 s_2_8  + 2000.000000 r_2_1_8 > -989.598578
s_1_2 + s_1_1 + 1000 r_1_1_2 >= 2
- s_1_2 - s_1_1 - 1000 r_1_1_2 >= -1001
t_1_2 - t_1_1 + 1000.000000 u_1_1_2 - 1.777504 s_1_1  + 1.777504 s_1_7  + 2000.000000 r_1_1_2 > 7.761678
s_2_2 + s_2_1 + 1000 r_2_1_2 >= 2
- s_2_2 - s_2_1 - 1000 r_2_1_2 >= -1001
t_2_2 - t_2_1 + 1000.000000 u_2_1_2 - 2.013230 s_2_1  + 2.013230 s_2_7  + 2000.000000 r_2_1_2 > 6.801206
s_1_2 + s_1_3 + 1000 r_1_2_3 >= 2
- s_1_2 - s_1_3 - 1000 r_1_2_3 >= -1001
t_1_2 - t_1_3 - 1000.000000 u_1_2_3 - 1.777504 s_1_3  + 1.777504 s_1_8  + 2000.000000 r_1_2_3 > -986.664600
s_2_2 + s_2_3 + 1000 r_2_2_3 >= 2
- s_2_2 - s_2_3 - 1000 r_2_2_3 >= -1001
t_2_2 - t_2_3 - 1000.000000 u_2_2_3 - 2.013230 s_2_3  + 2.013230 s_2_8  + 2000.000000 r_2_2_3 > -990.005767
s_1_2 + s_1_4 + 1000 r_1_2_4 >= 2
- s_1_2 - s_1_4 - 1000 r_1_2_4 >= -1001
t_1_2 - t_1_4 - 1000.000000 u_1_2_4 - 2.523352 s_1_4  + 0.745848 s_1_3  + 1.777504 s_1_8  + 2000.000000 r_1_2_4 > -993.342900
s_2_2 + s_2_4 + 1000 r_2_2_4 >= 2
- s_2_2 - s_2_4 - 1000 r_2_2_4 >= -1001
t_2_2 - t_2_4 - 1000.000000 u_2_2_4 - 2.671805 s_2_4  + 0.658575 s_2_3  + 2.013230 s_2_8  + 2000.000000 r_2_2_4 > -994.234974
s_1_2 + s_1_5 + 1000 r_1_2_5 >= 2
- s_1_2 - s_1_5 - 1000 r_1_2_5 >= -1001
t_1_2 - t_1_5 - 1000.000000 u_1_2_5 - 3.555008 s_1_5  + 1.777504 s_1_7  + 1.777504 s_1_8  + 2000.000000 r_1_2_5 > -990.133622
s_2_2 + s_2_5 + 1000 r_2_2_5 >= 2
- s_2_2 - s_2_5 - 1000 r_2_2_5 >= -1001
t_2_2 - t_2_5 - 1000.000000 u_2_2_5 - 4.026460 s_2_5  + 2.013230 s_2_7  + 2.013230 s_2_8  + 2000.000000 r_2_2_5 > -992.736214
t_1_6 - t_1_2 - 1001.777504 s_1_2  + 1.777504 s_1_8  > -991.331700
t_1_6 - t_2_2 - 1002.013230 s_2_2  + 2.013230 s_2_8  > -992.397503
t_2_6 - t_1_2 - 1001.777504 s_1_2  + 1.777504 s_1_8  > -991.331700
t_2_6 - t_2_2 - 1002.013230 s_2_2  + 2.013230 s_2_8  > -992.397503
s_1_2 + s_1_7 + 1000 r_1_2_7 >= 2
- s_1_2 - s_1_7 - 1000 r_1_2_7 >= -1001
t_1_2 - t_1_7 - 1000.000000 u_1_2_7 - 0.000000 s_1_7  + 2000.000000 r_1_2_7 > -970.417900
s_2_2 + s_2_7 + 1000 r_2_2_7 >= 2
- s_2_2 - s_2_7 - 1000 r_2_2_7 >= -1001
t_2_2 - t_2_7 - 1000.000000 u_2_2_7 - 0.000000 s_2_7  + 2000.000000 r_2_2_7 > -989.718922
t_1_2 - t_1_8 - 1000.000000 s_1_8  > -970.454600
t_1_2 - t_2_8 - 1000.000000 s_2_8  > -989.598578
t_2_2 - t_1_8 - 1000.000000 s_1_8  > -970.454600
t_2_2 - t_2_8 - 1000.000000 s_2_8  > -989.598578
s_1_3 + s_1_1 + 1000 r_1_1_3 >= 2
- s_1_3 - s_1_1 - 1000 r_1_1_3 >= -1001
t_1_3 - t_1_1 + 1000.000000 u_1_1_3 - 1.777504 s_1_1  + 1.777504 s_1_7  + 2000.000000 r_1_1_3 > 7.761678
s_2_3 + s_2_1 + 1000 r_2_1_3 >= 2
- s_2_3 - s_2_1 - 1000 r_2_1_3 >= -1001
t_2_3 - t_2_1 + 1000.000000 u_2_1_3 - 2.013230 s_2_1  + 2.013230 s_2_7  + 2000.000000 r_2_1_3 > 6.801206
s_1_3 + s_1_2 + 1000 r_1_2_3 >= 2
- s_1_3 - s_1_2 - 1000 r_1_2_3 >= -1001
t_1_3 - t_1_2 + 1000.000000 u_1_2_3 - 1.777504 s_1_2  + 1.777504 s_1_8  + 2000.000000 r_1_2_3 > 8.668300
s_2_3 + s_2_2 + 1000 r_2_2_3 >= 2
- s_2_3 - s_2_2 - 1000 r_2_2_3 >= -1001
t_2_3 - t_2_2 + 1000.000000 u_2_2_3 - 2.013230 s_2_2  + 2.013230 s_2_8  + 2000.000000 r_2_2_3 > 7.602497
t_1_4 - t_1_3 - 1001.777504 s_1_3  + 1.777504 s_1_8  > -986.664600
t_1_4 - t_2_3 - 1002.013230 s_2_3  + 2.013230 s_2_8  > -990.005767
t_2_4 - t_1_3 - 1001.777504 s_1_3  + 1.777504 s_1_8  > -986.664600
t_2_4 - t_2_3 - 1002.013230 s_2_3  + 2.013230 s_2_8  > -990.005767
s_1_3 + s_1_5 + 1000 r_1_3_5 >= 2
- s_1_3 - s_1_5 - 1000 r_1_3_5 >= -1001
t_1_3 - t_1_5 - 1000.000000 u_1_3_5 - 3.555008 s_1_5  + 1.777504 s_1_7  + 1.777504 s_1_8  + 2000.000000 r_1_3_5 > -990.133622
s_2_3 + s_2_5 + 1000 r_2_3_5 >= 2
- s_2_3 - s_2_5 - 1000 r_2_3_5 >= -1001
t_2_3 - t_2_5 - 1000.000000 u_2_3_5 - 4.026460 s_2_5  + 2.013230 s_2_7  + 2.013230 s_2_8  + 2000.000000 r_2_3_5 > -992.736214
t_1_6 - t_1_3 - 1001.777504 s_1_3  + 1.777504 s_1_8  > -986.664600
t_1_6 - t_2_3 - 1002.013230 s_2_3  + 2.013230 s_2_8  > -990.005767
t_2_6 - t_1_3 - 1001.777504 s_1_3  + 1.777504 s_1_8  > -986.664600
t_2_6 - t_2_3 - 1002.013230 s_2_3  + 2.013230 s_2_8  > -990.005767
s_1_3 + s_1_7 + 1000 r_1_3_7 >= 2
- s_1_3 - s_1_7 - 1000 r_1_3_7 >= -1001
t_1_3 - t_1_7 - 1000.000000 u_1_3_7 - 0.000000 s_1_7  + 2000.000000 r_1_3_7 > -970.417900
s_2_3 + s_2_7 + 1000 r_2_3_7 >= 2
- s_2_3 - s_2_7 - 1000 r_2_3_7 >= -1001
t_2_3 - t_2_7 - 1000.000000 u_2_3_7 - 0.000000 s_2_7  + 2000.000000 r_2_3_7 > -989.718922
t_1_3 - t_1_8 - 1000.000000 s_1_8  > -970.454600
t_1_3 - t_2_8 - 1000.000000 s_2_8  > -989.598578
t_2_3 - t_1_8 - 1000.000000 s_1_8  > -970.454600
t_2_3 - t_2_8 - 1000.000000 s_2_8  > -989.598578
s_1_4 + s_1_1 + 1000 r_1_1_4 >= 2
- s_1_4 - s_1_1 - 1000 r_1_1_4 >= -1001
t_1_4 - t_1_1 + 1000.000000 u_1_1_4 - 1.777504 s_1_1  + 1.777504 s_1_7  + 2000.000000 r_1_1_4 > 7.761678
s_2_4 + s_2_1 + 1000 r_2_1_4 >= 2
- s_2_4 - s_2_1 - 1000 r_2_1_4 >= -1001
t_2_4 - t_2_1 + 1000.000000 u_2_1_4 - 2.013230 s_2_1  + 2.013230 s_2_7  + 2000.000000 r_2_1_4 > 6.801206
s_1_4 + s_1_2 + 1000 r_1_2_4 >= 2
- s_1_4 - s_1_2 - 1000 r_1_2_4 >= -1001
t_1_4 - t_1_2 + 1000.000000 u_1_2_4 - 1.777504 s_1_2  + 1.777504 s_1_8  + 2000.000000 r_1_2_4 > 8.668300
s_2_4 + s_2_2 + 1000 r_2_2_4 >= 2
- s_2_4 - s_2_2 - 1000 r_2_2_4 >= -1001
t_2_4 - t_2_2 + 1000.000000 u_2_2_4 - 2.013230 s_2_2  + 2.013230 s_2_8  + 2000.000000 r_2_2_4 > 7.602497
s_1_4 + s_1_5 + 1000 r_1_4_5 >= 2
- s_1_4 - s_1_5 - 1000 r_1_4_5 >= -1001
t_1_4 - t_1_5 - 1000.000000 u_1_4_5 - 3.555008 s_1_5  + 1.777504 s_1_7  + 1.777504 s_1_8  + 2000.000000 r_1_4_5 > -990.133622
s_2_4 + s_2_5 + 1000 r_2_4_5 >= 2
- s_2_4 - s_2_5 - 1000 r_2_4_5 >= -1001
t_2_4 - t_2_5 - 1000.000000 u_2_4_5 - 4.026460 s_2_5  + 2.013230 s_2_7  + 2.013230 s_2_8  + 2000.000000 r_2_4_5 > -992.736214
t_1_6 - t_1_4 - 1002.523352 s_1_4  + 0.745848 s_1_3  + 1.777504 s_1_8  > -993.342900
t_1_6 - t_2_4 - 1002.671805 s_2_4  + 0.658575 s_2_3  + 2.013230 s_2_8  > -994.234974
t_2_6 - t_1_4 - 1002.523352 s_1_4  + 0.745848 s_1_3  + 1.777504 s_1_8  > -993.342900
t_2_6 - t_2_4 - 1002.671805 s_2_4  + 0.658575 s_2_3  + 2.013230 s_2_8  > -994.234974
s_1_4 + s_1_7 + 1000 r_1_4_7 >= 2
- s_1_4 - s_1_7 - 1000 r_1_4_7 >= -1001
t_1_4 - t_1_7 - 1000.000000 u_1_4_7 - 0.000000 s_1_7  + 2000.000000 r_1_4_7 > -970.417900
s_2_4 + s_2_7 + 1000 r_2_4_7 >= 2
- s_2_4 - s_2_7 - 1000 r_2_4_7 >= -1001
t_2_4 - t_2_7 - 1000.000000 u_2_4_7 - 0.000000 s_2_7  + 2000.000000 r_2_4_7 > -989.718922
t_1_4 - t_1_8 - 1000.000000 s_1_8  > -970.454600
t_1_4 - t_2_8 - 1000.000000 s_2_8  > -989.598578
t_2_4 - t_1_8 - 1000.000000 s_1_8  > -970.454600
t_2_4 - t_2_8 - 1000.000000 s_2_8  > -989.598578
s_1_5 + s_1_1 + 1000 r_1_1_5 >= 2
- s_1_5 - s_1_1 - 1000 r_1_1_5 >= -1001
t_1_5 - t_1_1 + 1000.000000 u_1_1_5 - 1.777504 s_1_1  + 1.777504 s_1_7  + 2000.000000 r_1_1_5 > 7.761678
s_2_5 + s_2_1 + 1000 r_2_1_5 >= 2
- s_2_5 - s_2_1 - 1000 r_2_1_5 >= -1001
t_2_5 - t_2_1 + 1000.000000 u_2_1_5 - 2.013230 s_2_1  + 2.013230 s_2_7  + 2000.000000 r_2_1_5 > 6.801206
s_1_5 + s_1_2 + 1000 r_1_2_5 >= 2
- s_1_5 - s_1_2 - 1000 r_1_2_5 >= -1001
t_1_5 - t_1_2 + 1000.000000 u_1_2_5 - 1.777504 s_1_2  + 1.777504 s_1_8  + 2000.000000 r_1_2_5 > 8.668300
s_2_5 + s_2_2 + 1000 r_2_2_5 >= 2
- s_2_5 - s_2_2 - 1000 r_2_2_5 >= -1001
t_2_5 - t_2_2 + 1000.000000 u_2_2_5 - 2.013230 s_2_2  + 2.013230 s_2_8  + 2000.000000 r_2_2_5 > 7.602497
s_1_5 + s_1_3 + 1000 r_1_3_5 >= 2
- s_1_5 - s_1_3 - 1000 r_1_3_5 >= -1001
t_1_5 - t_1_3 + 1000.000000 u_1_3_5 - 1.777504 s_1_3  + 1.777504 s_1_8  + 2000.000000 r_1_3_5 > 13.335400
s_2_5 + s_2_3 + 1000 r_2_3_5 >= 2
- s_2_5 - s_2_3 - 1000 r_2_3_5 >= -1001
t_2_5 - t_2_3 + 1000.000000 u_2_3_5 - 2.013230 s_2_3  + 2.013230 s_2_8  + 2000.000000 r_2_3_5 > 9.994233
s_1_5 + s_1_4 + 1000 r_1_4_5 >= 2
- s_1_5 - s_1_4 - 1000 r_1_4_5 >= -1001
t_1_5 - t_1_4 + 1000.000000 u_1_4_5 - 2.523352 s_1_4  + 0.745848 s_1_3  + 1.777504 s_1_8  + 2000.000000 r_1_4_5 > 6.657100
s_2_5 + s_2_4 + 1000 r_2_4_5 >= 2
- s_2_5 - s_2_4 - 1000 r_2_4_5 >= -1001
t_2_5 - t_2_4 + 1000.000000 u_2_4_5 - 2.671805 s_2_4  + 0.658575 s_2_3  + 2.013230 s_2_8  + 2000.000000 r_2_4_5 > 5.765026
t_1_6 - t_1_5 - 1003.555008 s_1_5  + 1.777504 s_1_7  + 1.777504 s_1_8  > -990.133622
t_1_6 - t_2_5 - 1004.026460 s_2_5  + 2.013230 s_2_7  + 2.013230 s_2_8  > -992.736214
t_2_6 - t_1_5 - 1003.555008 s_1_5  + 1.777504 s_1_7  + 1.777504 s_1_8  > -990.133622
t_2_6 - t_2_5 - 1004.026460 s_2_5  + 2.013230 s_2_7  + 2.013230 s_2_8  > -992.736214
t_1_5 - t_1_7 - 1000.000000 s_1_7  > -970.417900
t_1_5 - t_2_7 - 1000.000000 s_2_7  > -989.718922
t_2_5 - t_1_7 - 1000.000000 s_1_7  > -970.417900
t_2_5 - t_2_7 - 1000.000000 s_2_7  > -989.718922
t_1_5 - t_1_8 - 1000.000000 s_1_8  > -970.454600
t_1_5 - t_2_8 - 1000.000000 s_2_8  > -989.598578
t_2_5 - t_1_8 - 1000.000000 s_1_8  > -970.454600
t_2_5 - t_2_8 - 1000.000000 s_2_8  > -989.598578
s_1_7 + s_1_2 + 1000 r_1_2_7 >= 2
- s_1_7 - s_1_2 - 1000 r_1_2_7 >= -1001
t_1_7 - t_1_2 + 1000.000000 u_1_2_7 - 1.777504 s_1_2  + 1.777504 s_1_8  + 2000.000000 r_1_2_7 > 8.668300
s_2_7 + s_2_2 + 1000 r_2_2_7 >= 2
- s_2_7 - s_2_2 - 1000 r_2_2_7 >= -1001
t_2_7 - t_2_2 + 1000.000000 u_2_2_7 - 2.013230 s_2_2  + 2.013230 s_2_8  + 2000.000000 r_2_2_7 > 7.602497
s_1_7 + s_1_3 + 1000 r_1_3_7 >= 2
- s_1_7 - s_1_3 - 1000 r_1_3_7 >= -1001
t_1_7 - t_1_3 + 1000.000000 u_1_3_7 - 1.777504 s_1_3  + 1.777504 s_1_8  + 2000.000000 r_1_3_7 > 13.335400
s_2_7 + s_2_3 + 1000 r_2_3_7 >= 2
- s_2_7 - s_2_3 - 1000 r_2_3_7 >= -1001
t_2_7 - t_2_3 + 1000.000000 u_2_3_7 - 2.013230 s_2_3  + 2.013230 s_2_8  + 2000.000000 r_2_3_7 > 9.994233
s_1_7 + s_1_4 + 1000 r_1_4_7 >= 2
- s_1_7 - s_1_4 - 1000 r_1_4_7 >= -1001
t_1_7 - t_1_4 + 1000.000000 u_1_4_7 - 2.523352 s_1_4  + 0.745848 s_1_3  + 1.777504 s_1_8  + 2000.000000 r_1_4_7 > 6.657100
s_2_7 + s_2_4 + 1000 r_2_4_7 >= 2
- s_2_7 - s_2_4 - 1000 r_2_4_7 >= -1001
t_2_7 - t_2_4 + 1000.000000 u_2_4_7 - 2.671805 s_2_4  + 0.658575 s_2_3  + 2.013230 s_2_8  + 2000.000000 r_2_4_7 > 5.765026
s_1_7 + s_1_8 + 1000 r_1_7_8 >= 2
- s_1_7 - s_1_8 - 1000 r_1_7_8 >= -1001
t_1_7 - t_1_8 - 1000.000000 u_1_7_8 - 0.000000 s_1_8  + 2000.000000 r_1_7_8 > -970.454600
s_2_7 + s_2_8 + 1000 r_2_7_8 >= 2
- s_2_7 - s_2_8 - 1000 r_2_7_8 >= -1001
t_2_7 - t_2_8 - 1000.000000 u_2_7_8 - 0.000000 s_2_8  + 2000.000000 r_2_7_8 > -989.598578
s_1_8 + s_1_1 + 1000 r_1_1_8 >= 2
- s_1_8 - s_1_1 - 1000 r_1_1_8 >= -1001
t_1_8 - t_1_1 + 1000.000000 u_1_1_8 - 1.777504 s_1_1  + 1.777504 s_1_7  + 2000.000000 r_1_1_8 > 7.761678
s_2_8 + s_2_1 + 1000 r_2_1_8 >= 2
- s_2_8 - s_2_1 - 1000 r_2_1_8 >= -1001
t_2_8 - t_2_1 + 1000.000000 u_2_1_8 - 2.013230 s_2_1  + 2.013230 s_2_7  + 2000.000000 r_2_1_8 > 6.801206
s_1_8 + s_1_7 + 1000 r_1_7_8 >= 2
- s_1_8 - s_1_7 - 1000 r_1_7_8 >= -1001
t_1_8 - t_1_7 + 1000.000000 u_1_7_8 - 0.000000 s_1_7  + 2000.000000 r_1_7_8 > 29.582100
s_2_8 + s_2_7 + 1000 r_2_7_8 >= 2
- s_2_8 - s_2_7 - 1000 r_2_7_8 >= -1001
t_2_8 - t_2_7 + 1000.000000 u_2_7_8 - 0.000000 s_2_7  + 2000.000000 r_2_7_8 > 10.281078
Binary
s_1_1
s_2_1
s_1_2
s_2_2
s_1_3
s_2_3
s_1_4
s_2_4
s_1_5
s_2_5
s_1_6
s_2_6
s_1_7
s_2_7
s_1_8
s_2_8
u_1_1_2
r_1_1_2
u_2_1_2
r_2_1_2
u_1_1_3
r_1_1_3
u_2_1_3
r_2_1_3
u_1_1_4
r_1_1_4
u_2_1_4
r_2_1_4
u_1_1_5
r_1_1_5
u_2_1_5
r_2_1_5
u_1_1_8
r_1_1_8
u_2_1_8
r_2_1_8
u_1_2_3
r_1_2_3
u_2_2_3
r_2_2_3
u_1_2_4
r_1_2_4
u_2_2_4
r_2_2_4
u_1_2_5
r_1_2_5
u_2_2_5
r_2_2_5
u_1_2_7
r_1_2_7
u_2_2_7
r_2_2_7
u_1_3_5
r_1_3_5
u_2_3_5
r_2_3_5
u_1_3_7
r_1_3_7
u_2_3_7
r_2_3_7
u_1_4_5
r_1_4_5
u_2_4_5
r_2_4_5
u_1_4_7
r_1_4_7
u_2_4_7
r_2_4_7
u_1_7_8
r_1_7_8
u_2_7_8
r_2_7_8

End
